(set-logic QF_S)
(declare-fun var0 () String)
(assert (RegexIn var0 (RegexConcat (RegexUnion (RegexPlus (Str2Reg "000")) (RegexPlus (Str2Reg "1"))) (RegexConcat (RegexUnion (RegexStar (Str2Reg "2")) (RegexStar (Str2Reg "333"))) (RegexConcat (RegexUnion (RegexStar (Str2Reg "444")) (RegexStar (Str2Reg "5"))) (RegexConcat (RegexUnion (RegexStar (Str2Reg "666")) (RegexStar (Str2Reg "777"))) (RegexConcat (RegexPlus (RegexPlus (Str2Reg "88"))) (RegexConcat (RegexPlus (RegexStar (Str2Reg "999"))) (RegexConcat (RegexStar (RegexStar (Str2Reg "aaa"))) (RegexConcat (RegexPlus (RegexPlus (Str2Reg "b"))) (RegexConcat (RegexPlus (RegexUnion (Str2Reg "ccc") (Str2Reg "d"))) (RegexConcat (RegexUnion (RegexUnion (Str2Reg "ee") (Str2Reg "fff")) (RegexUnion (Str2Reg "ggg") (Str2Reg "h"))) (RegexConcat (RegexPlus (RegexUnion (Str2Reg "iii") (Str2Reg "j"))) (RegexConcat (RegexStar (RegexUnion (Str2Reg "kk") (Str2Reg "ll"))) (RegexConcat (RegexStar (RegexStar (Str2Reg "mmm"))) (RegexConcat (RegexPlus (RegexUnion (Str2Reg "nnn") (Str2Reg "o"))) (RegexConcat (RegexPlus (RegexPlus (Str2Reg "pp"))) (RegexConcat (RegexUnion (RegexUnion (Str2Reg "qqq") (Str2Reg "rrr")) (RegexUnion (Str2Reg "sss") (Str2Reg "t"))) (RegexConcat (RegexPlus (RegexUnion (Str2Reg "uuu") (Str2Reg "vv"))) (RegexConcat (RegexStar (RegexStar (Str2Reg "w"))) (RegexConcat (RegexUnion (RegexStar (Str2Reg "xx")) (RegexStar (Str2Reg "yyy"))) (RegexConcat (RegexUnion (RegexPlus (Str2Reg "zzz")) (RegexPlus (Str2Reg "AA"))) (RegexConcat (RegexStar (RegexUnion (Str2Reg "BBB") (Str2Reg "C"))) (RegexConcat (RegexUnion (RegexUnion (Str2Reg "D") (Str2Reg "E")) (RegexUnion (Str2Reg "F") (Str2Reg "GGG"))) (RegexConcat (RegexUnion (RegexPlus (Str2Reg "HHH")) (RegexPlus (Str2Reg "III"))) (RegexConcat (RegexUnion (RegexUnion (Str2Reg "J") (Str2Reg "KKK")) (RegexUnion (Str2Reg "LLL") (Str2Reg "MMM"))) (RegexConcat (RegexUnion (RegexPlus (Str2Reg "NNN")) (RegexPlus (Str2Reg "OO"))) (RegexConcat (RegexPlus (RegexStar (Str2Reg "P"))) (RegexConcat (RegexUnion (RegexStar (Str2Reg "Q")) (RegexStar (Str2Reg "R"))) (RegexConcat (RegexUnion (RegexUnion (Str2Reg "SSS") (Str2Reg "TTT")) (RegexUnion (Str2Reg "UU") (Str2Reg "VVV"))) (RegexConcat (RegexStar (RegexUnion (Str2Reg "WW") (Str2Reg "XXX"))) (RegexConcat (RegexUnion (RegexUnion (Str2Reg "YYY") (Str2Reg "ZZ")) (RegexUnion (Str2Reg "!!!") (Str2Reg "\"\""))) (RegexConcat (RegexStar (RegexPlus (Str2Reg "#"))) (RegexConcat (RegexStar (RegexStar (Str2Reg "$"))) (RegexConcat (RegexStar (RegexPlus (Str2Reg "%%%"))) (RegexConcat (RegexUnion (RegexUnion (Str2Reg "&&&") (Str2Reg "'''")) (RegexUnion (Str2Reg "(") (Str2Reg ")))"))) (RegexConcat (RegexStar (RegexUnion (Str2Reg "***") (Str2Reg "+"))) (RegexConcat (RegexPlus (RegexStar (Str2Reg ","))) (RegexConcat (RegexStar (RegexStar (Str2Reg "---"))) (RegexConcat (RegexPlus (RegexPlus (Str2Reg "."))) (RegexConcat (RegexPlus (RegexStar (Str2Reg "//"))) (RegexConcat (RegexPlus (RegexStar (Str2Reg "::"))) (RegexConcat (RegexStar (RegexUnion (Str2Reg ";") (Str2Reg "<"))) (RegexConcat (RegexStar (RegexUnion (Str2Reg "===") (Str2Reg ">>"))) (RegexConcat (RegexPlus (RegexUnion (Str2Reg "???") (Str2Reg "@"))) (RegexConcat (RegexPlus (RegexPlus (Str2Reg "["))) (RegexConcat (RegexPlus (RegexUnion (Str2Reg "\\") (Str2Reg "]]]"))) (RegexConcat (RegexUnion (RegexUnion (Str2Reg "^^^") (Str2Reg "__")) (RegexUnion (Str2Reg "```") (Str2Reg "{{"))) (RegexConcat (RegexUnion (RegexStar (Str2Reg "|||")) (RegexStar (Str2Reg "}}"))) (RegexConcat (RegexPlus (RegexPlus (Str2Reg "~~~"))) (RegexConcat (RegexStar (RegexUnion (Str2Reg "0") (Str2Reg "11"))) (RegexConcat (RegexUnion (RegexPlus (Str2Reg "222")) (RegexPlus (Str2Reg "333"))) (RegexConcat (RegexPlus (RegexPlus (Str2Reg "4"))) (RegexConcat (RegexUnion (RegexPlus (Str2Reg "55")) (RegexPlus (Str2Reg "666"))) (RegexConcat (RegexPlus (RegexUnion (Str2Reg "777") (Str2Reg "888"))) (RegexConcat (RegexStar (RegexPlus (Str2Reg "999"))) (RegexConcat (RegexStar (RegexUnion (Str2Reg "a") (Str2Reg "bb"))) (RegexConcat (RegexUnion (RegexStar (Str2Reg "c")) (RegexStar (Str2Reg "ddd"))) (RegexConcat (RegexStar (RegexUnion (Str2Reg "eee") (Str2Reg "fff"))) (RegexConcat (RegexStar (RegexStar (Str2Reg "g"))) (RegexConcat (RegexStar (RegexPlus (Str2Reg "hh"))) (RegexConcat (RegexStar (RegexStar (Str2Reg "ii"))) (RegexConcat (RegexStar (RegexStar (Str2Reg "jjj"))) (RegexConcat (RegexStar (RegexPlus (Str2Reg "kk"))) (RegexConcat (RegexStar (RegexUnion (Str2Reg "lll") (Str2Reg "mm"))) (RegexConcat (RegexPlus (RegexPlus (Str2Reg "nn"))) (RegexConcat (RegexPlus (RegexUnion (Str2Reg "ooo") (Str2Reg "ppp"))) (RegexConcat (RegexUnion (RegexPlus (Str2Reg "qq")) (RegexPlus (Str2Reg "rrr"))) (RegexConcat (RegexPlus (RegexStar (Str2Reg "s"))) (RegexConcat (RegexUnion (RegexStar (Str2Reg "ttt")) (RegexStar (Str2Reg "uuu"))) (RegexConcat (RegexStar (RegexPlus (Str2Reg "vv"))) (RegexConcat (RegexStar (RegexStar (Str2Reg "www"))) (RegexConcat (RegexPlus (RegexStar (Str2Reg "xx"))) (RegexConcat (RegexUnion (RegexStar (Str2Reg "yyy")) (RegexStar (Str2Reg "zzz"))) (RegexConcat (RegexPlus (RegexPlus (Str2Reg "A"))) (RegexConcat (RegexPlus (RegexStar (Str2Reg "B"))) (RegexConcat (RegexUnion (RegexPlus (Str2Reg "CC")) (RegexPlus (Str2Reg "D"))) (RegexConcat (RegexUnion (RegexPlus (Str2Reg "E")) (RegexPlus (Str2Reg "FFF"))) (RegexConcat (RegexUnion (RegexUnion (Str2Reg "GGG") (Str2Reg "HHH")) (RegexUnion (Str2Reg "I") (Str2Reg "J"))) (RegexConcat (RegexStar (RegexStar (Str2Reg "KKK"))) (RegexConcat (RegexUnion (RegexStar (Str2Reg "L")) (RegexStar (Str2Reg "M"))) (RegexConcat (RegexStar (RegexStar (Str2Reg "NN"))) (RegexConcat (RegexPlus (RegexPlus (Str2Reg "O"))) (RegexConcat (RegexPlus (RegexStar (Str2Reg "PP"))) (RegexConcat (RegexStar (RegexUnion (Str2Reg "QQ") (Str2Reg "RRR"))) (RegexConcat (RegexUnion (RegexUnion (Str2Reg "SS") (Str2Reg "TTT")) (RegexUnion (Str2Reg "UU") (Str2Reg "VVV"))) (RegexConcat (RegexPlus (RegexPlus (Str2Reg "WWW"))) (RegexConcat (RegexUnion (RegexUnion (Str2Reg "XX") (Str2Reg "YY")) (RegexUnion (Str2Reg "ZZ") (Str2Reg "!!!"))) (RegexConcat (RegexUnion (RegexUnion (Str2Reg "\"\"\"") (Str2Reg "#")) (RegexUnion (Str2Reg "$") (Str2Reg "%"))) (RegexConcat (RegexStar (RegexPlus (Str2Reg "&&"))) (RegexConcat (RegexUnion (RegexStar (Str2Reg "''")) (RegexStar (Str2Reg "(("))) (RegexConcat (RegexStar (RegexPlus (Str2Reg ")))"))) (RegexConcat (RegexStar (RegexUnion (Str2Reg "***") (Str2Reg "++"))) (RegexConcat (RegexStar (RegexStar (Str2Reg ",,"))) (RegexConcat (RegexUnion (RegexPlus (Str2Reg "-")) (RegexPlus (Str2Reg "..."))) (RegexConcat (RegexPlus (RegexUnion (Str2Reg "/") (Str2Reg "::"))) (RegexConcat (RegexUnion (RegexUnion (Str2Reg ";") (Str2Reg "<<")) (RegexUnion (Str2Reg "==") (Str2Reg ">>>"))) (RegexConcat (RegexPlus (RegexUnion (Str2Reg "???") (Str2Reg "@"))) (RegexConcat (RegexUnion (RegexPlus (Str2Reg "[[")) (RegexPlus (Str2Reg "\\"))) (RegexConcat (RegexPlus (RegexUnion (Str2Reg "]]") (Str2Reg "^^^"))) (RegexConcat (RegexStar (RegexStar (Str2Reg "_"))) (RegexConcat (RegexUnion (RegexPlus (Str2Reg "```")) (RegexPlus (Str2Reg "{{{"))) (RegexConcat (RegexStar (RegexStar (Str2Reg "||"))) (RegexConcat (RegexPlus (RegexUnion (Str2Reg "}") (Str2Reg "~"))) (RegexConcat (RegexUnion (RegexUnion (Str2Reg "00") (Str2Reg "111")) (RegexUnion (Str2Reg "22") (Str2Reg "33"))) (RegexConcat (RegexUnion (RegexPlus (Str2Reg "4")) (RegexPlus (Str2Reg "555"))) (RegexConcat (RegexPlus (RegexPlus (Str2Reg "6"))) (RegexConcat (RegexStar (RegexPlus (Str2Reg "7"))) (RegexConcat (RegexUnion (RegexPlus (Str2Reg "8")) (RegexPlus (Str2Reg "999"))) (RegexConcat (RegexPlus (RegexUnion (Str2Reg "aaa") (Str2Reg "b"))) (RegexConcat (RegexUnion (RegexStar (Str2Reg "cc")) (RegexStar (Str2Reg "d"))) (RegexConcat (RegexUnion (RegexStar (Str2Reg "e")) (RegexStar (Str2Reg "f"))) (RegexConcat (RegexUnion (RegexStar (Str2Reg "g")) (RegexStar (Str2Reg "hh"))) (RegexConcat (RegexUnion (RegexStar (Str2Reg "i")) (RegexStar (Str2Reg "jj"))) (RegexConcat (RegexUnion (RegexUnion (Str2Reg "kk") (Str2Reg "ll")) (RegexUnion (Str2Reg "mmm") (Str2Reg "nn"))) (RegexConcat (RegexPlus (RegexUnion (Str2Reg "ooo") (Str2Reg "ppp"))) (RegexConcat (RegexStar (RegexPlus (Str2Reg "qqq"))) (RegexConcat (RegexPlus (RegexUnion (Str2Reg "rr") (Str2Reg "sss"))) (RegexConcat (RegexStar (RegexStar (Str2Reg "ttt"))) (RegexConcat (RegexStar (RegexPlus (Str2Reg "uu"))) (RegexConcat (RegexPlus (RegexPlus (Str2Reg "v"))) (RegexUnion (RegexUnion (Str2Reg "www") (Str2Reg "x")) (RegexUnion (Str2Reg "y") (Str2Reg "zzz"))))))))))))))))))))))))))))))))))))))))))))))))))))))))))))))))))))))))))))))))))))))))))))))))))))))))))))))))))))))))))))
(check-sat)